id: 1280
name: rail02
group: miplib2010
method: 2

Gurobi 7.0.2 (linux64, Matlab) logging started Mon Mar 26 10:19:42 2018


Gurobi 7.0.2 (linux64) logging started Mon Mar 26 10:19:42 2018

Optimize a model with 95791 rows, 270869 columns and 756228 nonzeros
Coefficient statistics:
  Matrix range     [1e+00, 6e+01]
  Objective range  [7e-07, 1e+01]
  Bounds range     [1e+00, 1e+00]
  RHS range        [1e+00, 1e+00]
Presolve removed 46045 rows and 83015 columns
Presolve time: 0.37s
Presolved: 49746 rows, 187854 columns, 599320 nonzeros

Ordering time: 1.56s

Barrier statistics:
 AA' NZ     : 8.293e+05
 Factor NZ  : 4.404e+07 (roughly 450 MBytes of memory)
 Factor Ops : 7.665e+10 (roughly 1 second per iteration)
 Threads    : 4

                  Objective                Residual
Iter       Primal          Dual         Primal    Dual     Compl     Time
   0  -1.19227973e+05 -4.87844710e+05  2.71e+04 1.21e+00  5.60e+01     3s
   1  -2.70665430e+04 -4.64424566e+05  6.01e+03 2.89e-01  1.31e+01     4s
   2  -4.09324415e+03 -3.38555458e+05  8.33e+02 8.60e-14  2.33e+00     5s
   3  -1.13609010e+03 -1.50168568e+05  1.77e+02 7.57e-14  6.26e-01     6s
   4  -6.19749932e+02 -4.04280972e+04  6.36e+01 7.39e-14  1.75e-01     7s
   5  -4.10069938e+02 -1.49722364e+04  2.05e+01 9.19e-14  6.09e-02     8s
   6  -3.21996561e+02 -8.60093432e+03  8.29e+00 1.25e-13  3.12e-02    10s
   7  -2.63876691e+02 -4.18606243e+03  3.84e+00 1.14e-13  1.48e-02    11s
   8  -2.25347270e+02 -2.67249900e+03  1.82e+00 1.26e-13  8.56e-03    12s
   9  -1.99697572e+02 -1.44864525e+03  7.69e-01 7.72e-14  4.19e-03    13s
  10  -1.90738829e+02 -9.03101100e+02  3.20e-01 8.53e-14  2.26e-03    14s
  11  -1.91307035e+02 -5.63357713e+02  2.09e-01 9.15e-14  1.23e-03    15s
  12  -1.91912681e+02 -4.40689121e+02  1.71e-01 1.05e-13  8.71e-04    16s
  13  -1.94882453e+02 -3.54485680e+02  1.11e-01 1.18e-13  5.62e-04    17s
  14  -1.96669048e+02 -3.19495210e+02  8.67e-02 9.77e-14  4.36e-04    18s
  15  -1.98655654e+02 -2.77395050e+02  6.30e-02 1.30e-13  2.90e-04    19s
  16  -2.00996734e+02 -2.56818602e+02  3.71e-02 8.55e-14  1.96e-04    20s
  17  -2.02264796e+02 -2.37386964e+02  2.53e-02 1.06e-13  1.26e-04    21s
  18  -2.03784206e+02 -2.26102578e+02  1.53e-02 1.66e-13  7.94e-05    22s
  19  -2.04678536e+02 -2.18785628e+02  9.64e-03 1.74e-13  5.04e-05    23s
  20  -2.05355762e+02 -2.14729373e+02  5.67e-03 1.03e-13  3.27e-05    24s
  21  -2.05705922e+02 -2.12528383e+02  3.86e-03 1.60e-13  2.34e-05    26s
  22  -2.06039410e+02 -2.10408004e+02  2.26e-03 1.27e-13  1.47e-05    27s
  23  -2.06182900e+02 -2.09187671e+02  1.62e-03 1.18e-13  1.03e-05    28s
  24  -2.06311772e+02 -2.08711631e+02  1.08e-03 9.77e-14  7.91e-06    28s
  25  -2.06359918e+02 -2.08403494e+02  8.85e-04 1.20e-13  6.69e-06    29s
  26  -2.06441870e+02 -2.07470165e+02  5.72e-04 1.17e-13  3.58e-06    30s
  27  -2.06500923e+02 -2.07087179e+02  3.60e-04 1.45e-13  2.09e-06    32s
  28  -2.06549942e+02 -2.06792973e+02  1.96e-04 1.32e-13  9.51e-07    33s
  29  -2.06579697e+02 -2.06683829e+02  9.55e-05 1.42e-13  4.29e-07    34s
  30  -2.06603250e+02 -2.06630902e+02  1.89e-05 1.80e-13  1.04e-07    35s
  31  -2.06607359e+02 -2.06612957e+02  7.62e-06 1.94e-13  2.78e-08    36s
  32  -2.06609401e+02 -2.06610638e+02  2.08e-06 2.08e-13  6.92e-09    37s
  33  -2.06610143e+02 -2.06610327e+02  1.51e-07 1.61e-13  7.39e-10    38s
  34  -2.06610187e+02 -2.06610261e+02  3.24e-08 1.87e-13  2.49e-10    39s
  35  -2.06610195e+02 -2.06610221e+02  1.32e-08 1.27e-13  9.20e-11    40s
  36  -2.06610199e+02 -2.06610202e+02  3.59e-09 1.95e-13  1.17e-11    41s
  37  -2.06610200e+02 -2.06610200e+02  9.54e-10 1.55e-13  2.15e-13    42s

Barrier solved model in 37 iterations and 42.39 seconds
Optimal objective -2.06610200e+02

Crossover log...

   31960 DPushes remaining with DInf 0.0000000e+00                42s
       0 DPushes remaining with DInf 1.0000102e-06                45s

    4884 PPushes remaining with PInf 0.0000000e+00                45s
    4445 PPushes remaining with PInf 0.0000000e+00                45s
       0 PPushes remaining with PInf 0.0000000e+00                45s

  Push phase complete: Pinf 0.0000000e+00, Dinf 3.0000113e-06     45s

Iteration    Objective       Primal Inf.    Dual Inf.      Time
   35704   -2.0661020e+02   0.000000e+00   2.000000e-06     45s
   35709   -2.0661020e+02   0.000000e+00   0.000000e+00     46s

Solved in 35709 iterations and 45.58 seconds
Optimal objective -2.066102000e+02
status: OPTIMAL
